* #variable= 500 #constraint= 1
min: -813 x1 -311 x2 -945 x3 -112 x4 -7 x5 -617 x6 -992 x7 -829 x8 -561 x9 -875 x10 -191 x11 -482 x12 -578 x13 -395 x14 -889 x15 -789 x16 -474 x17 -504 x18 -943 x19 -780 x20 -673 x21 -176 x22 -784 x23 -84 x24 -617 x25 -988 x26 -809 x27 -235 x28 -546 x29 -40 x30 -738 x31 -21 x32 -98 x33 -599 x34 -413 x35 -651 x36 -918 x37 -692 x38 -603 x39 -923 x40 -306 x41 -171 x42 -821 x43 -672 x44 -345 x45 -653 x46 -268 x47 -329 x48 -722 x49 -938 x50 -213 x51 -456 x52 -623 x53 -553 x54 -69 x55 -889 x56 -795 x57 -339 x58 -404 x59 -658 x60 -455 x61 -766 x62 -297 x63 -417 x64 -969 x65 -949 x66 -970 x67 -272 x68 -41 x69 -733 x70 -622 x71 -454 x72 -873 x73 -674 x74 -66 x75 -896 x76 -73 x77 -112 x78 -884 x79 -517 x80 -380 x81 -525 x82 -23 x83 -927 x84 -899 x85 -571 x86 -371 x87 -852 x88 -956 x89 -740 x90 -608 x91 -948 x92 -295 x93 -734 x94 -847 x95 -22 x96 -172 x97 -958 x98 -565 x99 -403 x100 -668 x101 -608 x102 -437 x103 -524 x104 -314 x105 -36 x106 -633 x107 -566 x108 -542 x109 -517 x110 -61 x111 -659 x112 -262 x113 -612 x114 -208 x115 -397 x116 -9 x117 -665 x118 -471 x119 -12 x120 -202 x121 -913 x122 -448 x123 -991 x124 -517 x125 -771 x126 -688 x127 -327 x128 -273 x129 -428 x130 -841 x131 -142 x132 -954 x133 -930 x134 -588 x135 -719 x136 -369 x137 -670 x138 -663 x139 -951 x140 -227 x141 -834 x142 -547 x143 -696 x144 -931 x145 -138 x146 -588 x147 -647 x148 -629 x149 -392 x150 -878 x151 -67 x152 -808 x153 -375 x154 -680 x155 -638 x156 -374 x157 -625 x158 -352 x159 -177 x160 -579 x161 -356 x162 -211 x163 -295 x164 -240 x165 -143 x166 -679 x167 -915 x168 -219 x169 -754 x170 -55 x171 -526 x172 -229 x173 -635 x174 -433 x175 -600 x176 -103 x177 -765 x178 -552 x179 -264 x180 -210 x181 -27 x182 -930 x183 -119 x184 -58 x185 -643 x186 -461 x187 -254 x188 -293 x189 -29 x190 -178 x191 -648 x192 -382 x193 -458 x194 -518 x195 -537 x196 -193 x197 -594 x198 -353 x199 -606 x200 -538 x201 -270 x202 -5 x203 -15 x204 -879 x205 -852 x206 -845 x207 -471 x208 -118 x209 -232 x210 -375 x211 -196 x212 -764 x213 -503 x214 -760 x215 -818 x216 -84 x217 -519 x218 -162 x219 -170 x220 -536 x221 -683 x222 -36 x223 -767 x224 -558 x225 -331 x226 -102 x227 -801 x228 -538 x229 -927 x230 -688 x231 -522 x232 -276 x233 -988 x234 -614 x235 -246 x236 -230 x237 -335 x238 -578 x239 -488 x240 -805 x241 -279 x242 -638 x243 -552 x244 -81 x245 -991 x246 -140 x247 -776 x248 -530 x249 -281 x250 -188 x251 -830 x252 -313 x253 -38 x254 -153 x255 -523 x256 -528 x257 -753 x258 -960 x259 -10 x260 -303 x261 -524 x262 -662 x263 -44 x264 -692 x265 -145 x266 -493 x267 -640 x268 -182 x269 -675 x270 -59 x271 -257 x272 -942 x273 -22 x274 -360 x275 -199 x276 -875 x277 -304 x278 -41 x279 -839 x280 -264 x281 -523 x282 -894 x283 -974 x284 -500 x285 -939 x286 -68 x287 -81 x288 -918 x289 -449 x290 -263 x291 -736 x292 -419 x293 -330 x294 -752 x295 -992 x296 -286 x297 -474 x298 -511 x299 -112 x300 -770 x301 -58 x302 -398 x303 -804 x304 -719 x305 -761 x306 -865 x307 -901 x308 -855 x309 -398 x310 -685 x311 -633 x312 -803 x313 -355 x314 -596 x315 -766 x316 -711 x317 -709 x318 -954 x319 -530 x320 -982 x321 -808 x322 -856 x323 -423 x324 -739 x325 -399 x326 -571 x327 -50 x328 -510 x329 -498 x330 -359 x331 -234 x332 -864 x333 -976 x334 -381 x335 -373 x336 -251 x337 -411 x338 -790 x339 -830 x340 -448 x341 -252 x342 -939 x343 -835 x344 -590 x345 -715 x346 -811 x347 -11 x348 -604 x349 -160 x350 -144 x351 -677 x352 -67 x353 -296 x354 -726 x355 -59 x356 -611 x357 -23 x358 -513 x359 -878 x360 -808 x361 -388 x362 -650 x363 -779 x364 -561 x365 -490 x366 -133 x367 -242 x368 -838 x369 -426 x370 -114 x371 -943 x372 -451 x373 -862 x374 -294 x375 -25 x376 -949 x377 -993 x378 -950 x379 -976 x380 -751 x381 -754 x382 -200 x383 -141 x384 -481 x385 -831 x386 -461 x387 -121 x388 -198 x389 -613 x390 -783 x391 -135 x392 -81 x393 -46 x394 -67 x395 -501 x396 -772 x397 -180 x398 -386 x399 -85 x400 -556 x401 -305 x402 -714 x403 -219 x404 -956 x405 -913 x406 -476 x407 -111 x408 -52 x409 -343 x410 -290 x411 -850 x412 -173 x413 -804 x414 -511 x415 -589 x416 -652 x417 -399 x418 -634 x419 -148 x420 -25 x421 -638 x422 -945 x423 -282 x424 -268 x425 -322 x426 -390 x427 -702 x428 -371 x429 -593 x430 -80 x431 -532 x432 -721 x433 -148 x434 -505 x435 -350 x436 -494 x437 -745 x438 -63 x439 -400 x440 -775 x441 -715 x442 -890 x443 -740 x444 -778 x445 -157 x446 -961 x447 -562 x448 -177 x449 -862 x450 -553 x451 -977 x452 -160 x453 -285 x454 -34 x455 -11 x456 -732 x457 -894 x458 -112 x459 -922 x460 -570 x461 -821 x462 -979 x463 -208 x464 -946 x465 -175 x466 -531 x467 -325 x468 -838 x469 -753 x470 -597 x471 -786 x472 -442 x473 -344 x474 -410 x475 -882 x476 -386 x477 -239 x478 -922 x479 -608 x480 -610 x481 -806 x482 -220 x483 -986 x484 -190 x485 -255 x486 -872 x487 -389 x488 -903 x489 -853 x490 -676 x491 -451 x492 -919 x493 -957 x494 -655 x495 -16 x496 -217 x497 -438 x498 -101 x499 -227 x500 ;
-813 x1 -311 x2 -945 x3 -112 x4 -7 x5 -617 x6 -992 x7 -829 x8 -561 x9 -875 x10 -191 x11 -482 x12 -578 x13 -395 x14 -889 x15 -789 x16 -474 x17 -504 x18 -943 x19 -780 x20 -673 x21 -176 x22 -784 x23 -84 x24 -617 x25 -988 x26 -809 x27 -235 x28 -546 x29 -40 x30 -738 x31 -21 x32 -98 x33 -599 x34 -413 x35 -651 x36 -918 x37 -692 x38 -603 x39 -923 x40 -306 x41 -171 x42 -821 x43 -672 x44 -345 x45 -653 x46 -268 x47 -329 x48 -722 x49 -938 x50 -213 x51 -456 x52 -623 x53 -553 x54 -69 x55 -889 x56 -795 x57 -339 x58 -404 x59 -658 x60 -455 x61 -766 x62 -297 x63 -417 x64 -969 x65 -949 x66 -970 x67 -272 x68 -41 x69 -733 x70 -622 x71 -454 x72 -873 x73 -674 x74 -66 x75 -896 x76 -73 x77 -112 x78 -884 x79 -517 x80 -380 x81 -525 x82 -23 x83 -927 x84 -899 x85 -571 x86 -371 x87 -852 x88 -956 x89 -740 x90 -608 x91 -948 x92 -295 x93 -734 x94 -847 x95 -22 x96 -172 x97 -958 x98 -565 x99 -403 x100 -668 x101 -608 x102 -437 x103 -524 x104 -314 x105 -36 x106 -633 x107 -566 x108 -542 x109 -517 x110 -61 x111 -659 x112 -262 x113 -612 x114 -208 x115 -397 x116 -9 x117 -665 x118 -471 x119 -12 x120 -202 x121 -913 x122 -448 x123 -991 x124 -517 x125 -771 x126 -688 x127 -327 x128 -273 x129 -428 x130 -841 x131 -142 x132 -954 x133 -930 x134 -588 x135 -719 x136 -369 x137 -670 x138 -663 x139 -951 x140 -227 x141 -834 x142 -547 x143 -696 x144 -931 x145 -138 x146 -588 x147 -647 x148 -629 x149 -392 x150 -878 x151 -67 x152 -808 x153 -375 x154 -680 x155 -638 x156 -374 x157 -625 x158 -352 x159 -177 x160 -579 x161 -356 x162 -211 x163 -295 x164 -240 x165 -143 x166 -679 x167 -915 x168 -219 x169 -754 x170 -55 x171 -526 x172 -229 x173 -635 x174 -433 x175 -600 x176 -103 x177 -765 x178 -552 x179 -264 x180 -210 x181 -27 x182 -930 x183 -119 x184 -58 x185 -643 x186 -461 x187 -254 x188 -293 x189 -29 x190 -178 x191 -648 x192 -382 x193 -458 x194 -518 x195 -537 x196 -193 x197 -594 x198 -353 x199 -606 x200 -538 x201 -270 x202 -5 x203 -15 x204 -879 x205 -852 x206 -845 x207 -471 x208 -118 x209 -232 x210 -375 x211 -196 x212 -764 x213 -503 x214 -760 x215 -818 x216 -84 x217 -519 x218 -162 x219 -170 x220 -536 x221 -683 x222 -36 x223 -767 x224 -558 x225 -331 x226 -102 x227 -801 x228 -538 x229 -927 x230 -688 x231 -522 x232 -276 x233 -988 x234 -614 x235 -246 x236 -230 x237 -335 x238 -578 x239 -488 x240 -805 x241 -279 x242 -638 x243 -552 x244 -81 x245 -991 x246 -140 x247 -776 x248 -530 x249 -281 x250 -188 x251 -830 x252 -313 x253 -38 x254 -153 x255 -523 x256 -528 x257 -753 x258 -960 x259 -10 x260 -303 x261 -524 x262 -662 x263 -44 x264 -692 x265 -145 x266 -493 x267 -640 x268 -182 x269 -675 x270 -59 x271 -257 x272 -942 x273 -22 x274 -360 x275 -199 x276 -875 x277 -304 x278 -41 x279 -839 x280 -264 x281 -523 x282 -894 x283 -974 x284 -500 x285 -939 x286 -68 x287 -81 x288 -918 x289 -449 x290 -263 x291 -736 x292 -419 x293 -330 x294 -752 x295 -992 x296 -286 x297 -474 x298 -511 x299 -112 x300 -770 x301 -58 x302 -398 x303 -804 x304 -719 x305 -761 x306 -865 x307 -901 x308 -855 x309 -398 x310 -685 x311 -633 x312 -803 x313 -355 x314 -596 x315 -766 x316 -711 x317 -709 x318 -954 x319 -530 x320 -982 x321 -808 x322 -856 x323 -423 x324 -739 x325 -399 x326 -571 x327 -50 x328 -510 x329 -498 x330 -359 x331 -234 x332 -864 x333 -976 x334 -381 x335 -373 x336 -251 x337 -411 x338 -790 x339 -830 x340 -448 x341 -252 x342 -939 x343 -835 x344 -590 x345 -715 x346 -811 x347 -11 x348 -604 x349 -160 x350 -144 x351 -677 x352 -67 x353 -296 x354 -726 x355 -59 x356 -611 x357 -23 x358 -513 x359 -878 x360 -808 x361 -388 x362 -650 x363 -779 x364 -561 x365 -490 x366 -133 x367 -242 x368 -838 x369 -426 x370 -114 x371 -943 x372 -451 x373 -862 x374 -294 x375 -25 x376 -949 x377 -993 x378 -950 x379 -976 x380 -751 x381 -754 x382 -200 x383 -141 x384 -481 x385 -831 x386 -461 x387 -121 x388 -198 x389 -613 x390 -783 x391 -135 x392 -81 x393 -46 x394 -67 x395 -501 x396 -772 x397 -180 x398 -386 x399 -85 x400 -556 x401 -305 x402 -714 x403 -219 x404 -956 x405 -913 x406 -476 x407 -111 x408 -52 x409 -343 x410 -290 x411 -850 x412 -173 x413 -804 x414 -511 x415 -589 x416 -652 x417 -399 x418 -634 x419 -148 x420 -25 x421 -638 x422 -945 x423 -282 x424 -268 x425 -322 x426 -390 x427 -702 x428 -371 x429 -593 x430 -80 x431 -532 x432 -721 x433 -148 x434 -505 x435 -350 x436 -494 x437 -745 x438 -63 x439 -400 x440 -775 x441 -715 x442 -890 x443 -740 x444 -778 x445 -157 x446 -961 x447 -562 x448 -177 x449 -862 x450 -553 x451 -977 x452 -160 x453 -285 x454 -34 x455 -11 x456 -732 x457 -894 x458 -112 x459 -922 x460 -570 x461 -821 x462 -979 x463 -208 x464 -946 x465 -175 x466 -531 x467 -325 x468 -838 x469 -753 x470 -597 x471 -786 x472 -442 x473 -344 x474 -410 x475 -882 x476 -386 x477 -239 x478 -922 x479 -608 x480 -610 x481 -806 x482 -220 x483 -986 x484 -190 x485 -255 x486 -872 x487 -389 x488 -903 x489 -853 x490 -676 x491 -451 x492 -919 x493 -957 x494 -655 x495 -16 x496 -217 x497 -438 x498 -101 x499 -227 x500 >= -127563 ;